
Maximize
obj: 36 x122a +98 xe0b +36 x1226 +98 xe08 +42 xcf4 +57 xe67 +45 x1193
	+36 x10d1 +36 x10cd +45 x11a1 +41 xf7c +35 x1108 +33 x1129 +35 xe81 +45 xe2a
	+48 x1173 +44 x1101 +33 x12c0 +11 x1287 +45 x117c +208 xdc0 +11 x10e0 +7 x12fa
	+26 xf95 +48 x11ae +26 x1151 +45 x1185 +83 xcbf +26 xf98 +41 xf79 +26 x114f
	+89 xd42 +63 x1333 +35 x108d +40 x1009 +4 x12fc +24 xccd +26 xf97 +23 xcc8
	+82 x11d3 +36 xe9d +35 x10d5 +10 xf45 +35 xe76 +26 xf94 +40 xfed +35 x1233
	+43 xce8 +44 xcea +24 xccc +11 x1113 +48 x1133 +99 xd82 +4 x12e6 +67 x124a
	+45 x117e +35 x129f +44 xcec +42 x65f +36 x667 +11 x1293 +23 xeaf +78 x4bf
	+57 xe6e +103 x5d4 +xc5a +58 x1165 +35 x10fd +11 x10ef +67 x10a8 +9 x4e1
	+36 x1272 +36 xe99 +114 xe02 +35 x1236 +48 xee5 +46 x1023 +35 xe74 +35 x1096
	+35 x10f7 +45 xd00 +xbbb +14 x1062 +35 x1090 +36 x1271 +11 x11a0 +23 xcc6
	+57 xe70 +78 xf84 +82 x1208 +11 x1342 +58 x12fb +208 xdd9 +41 xfa5 +42 x1127
	+98 xd80 +40 xff0 +33 xfba +99 xd83 +55 xdfb +12 x12d3 +62 x39 +43 xcf7
	+11 x10e2 +45 xecb +26 xf32 +45 xea4 +97 x430 +98 xd94 +41 xfa6 +11 x1182
	+36 x1087 +48 x1139 +48 x1171 +60 x855 +58 x84d +634 x14d5 +60 x84b +26 x114d
	+82 x11d7 +67 x10aa +43 x12e2 +114 xe12 +11 x1285 +42 x1082 +65 xdb2 +43 xce4
	+46 x4c2 +82 x11e3 +26 x1153 +418 x14f2 +209 x45d +37 x49a +36 x1270 +84 xcbd
	+57 xe6d +42 xcee +48 x11ba +43 x12dc +11 x1294 +45 xea7 +40 x1007 +45 xcfe
	+87 x446 +xc0f +35 x127e +45 xef1 +47 xfb0 +35 x1306 +98 xd81 +35 x64b
	+11 x132b +46 xd03 +82 x120b +14 x117a +183 x571 +208 xdc5 +45 xcfa +35 x10b3
	+42 x126c +35 x1256 +42 xcf0 +36 x1083 +43 x5a6 +43 xe92 +36 x771 +98 xd86
	+67 x74d +40 xffc +35 x127b +496 xb58 +42 x11a7 +53 x110e +496 x2d5 +54 x1038
	+45 xece +98 xd92 +33 x5fa +33 x112b +84 xcc1 +45 xcfc +48 x1136 +67 x643
	+42 x1225 +56 x1204 +41 xf7f +9 x737 +58 x84f +98 xd88 +xdef +14 x6d8
	+66 xfab +165 x7bc +48 x6c4 +97 xd8c +82 x11db +23 xeb1 +82 x120e +497 x2d1
	+11 xeee +56 x1200 +xc59 +57 x608 +57 xe6b +42 x69a +35 x1114 +48 x5e5
	+46 xcfb +46 xd05 +33 x112f +82 x11df +xbe9 +43 x4e3 +36 x1085 +34 x1016
	+82 x71c +xc43 +551 xb71 +57 x1053 +209 x468 +xbe6 +156 x53e +40 x5c7
	+147 xd27 +36 x1089 +70 x832 +7 x12f9 +40 xffb +48 x100d +11 x10f1 +98 xd91
	+46 x4c1 +623 x714 +36 x122c +82 x726 +43 xcf9 +33 x112d +44 x114b +42 x6ec
	+43 x12de +26 xf96 +46 x1025 +36 x10cf +40 xfea +72 x5d3 +198 xda6 +xc3f
	+4 x12e7 +37 xf47 +45 x4f8 +76 xe05 +xbbd +35 x1239 +58 x1168 +35 x10b6
	+207 xda4 +57 xe6a +x350 +98 xd84 +4 x12bc -11 x126e +120 xdb9 +89 xd23
	+45 x118b +33 x12c2 +11 x1345 +xc3b +9 x62e +80 x3cb +45 x58a +78 x57d
	+46 x5c1 +98 xe1f +x1 +35 x1230 +35 x1281 +69 x830 +45 x6e1 +37 x611
	+99 xd74 +59 x844 +60 x85b +26 xf26 +496 x2b0 +x352 +9 x107f +35 x1257
	+40 xfe7 +76 xe1e +46 xcff +36 xe9b +99 x428 +496 x2da +198 xdcc +23 xec1
	+77 xfb9 +45 xeb7 +xc54 +11 x1105 +208 xdb8 +36 x10ce +78 xf85 +188 x58f
	+xc57 +8 x1126 +xc40 +36 x1228 +45 xecc +35 x10fb +48 x113c +209 x45c
	+128 x462 +208 xdd8 +159 xf75 +37 x1060 +147 xd24 +18 xf91 +80 xd07 +11 x1292
	+xbba +36 x668 +44 x6ae +xbca +42 xcf2 +9 x738 +8 x1125 +xbe2
	+11 x11b9 +8616 xf38 +47 xfcb +33 xcdf +45 x4f2 +99 xd8d +208 xdbe +43 x7a3
	+78 xe64 +89 x43a +35 x780 +496 x2dc +88 xd8b +44 xced +35 x12c8 +35 x12cb
	+xbf1 +4 x12fd +28 xfa9 +208 xdb6 +43 xce6 +9 x12b1 +39 xce0 +4 x12be
	+23 x4ee +165 x12f5 +x305 +35 x10b4 +35 x4d0 +209 xda5 +48 x101f +99 x434
	+45 xea1 +92 xe80 +207 x681 +80 xd0d +70 x32 +48 x61a +11 xf0a +98 xd85
	+48 x1010 +48 x106d +208 xdd6 +67 x124d +135 x5fd +497 x2d2 +57 x606 +33 xfc9
	+70 xfb2 +44 x6ac +45 x586 +11 x10e4 +45 x6e2 +77 x105e +36 x10cb +53 x513
	+55 x1338 +80 x102f +57 x104d +43 xcf3 +52 x1068 +77 x105d +88 xd8e +11 x11ab
	+11 x1327 +35 x1093 +63 x7e6 +58 x6bc +43 x12db +45 x1188 +65 x451 +98 xd90
	+35 x1278 +99 x42a +209 xd9f +43 xce2 +117 x3b1 +35 x1309 +35 x1302 +xc16
	+35 x10f3 +56 x1206 +xbef +xc49 +45 xf0b +122 x12f3 +45 xecd +42 x1224
	+58 x1167 +45 xeaa +67 x124b +69 x82e +36 xe97 +45 x4f5 +35 x10db +xc4f
	+55 x7ef +82 x11cf +48 xef9 +486 x2d4 +48 x5fe +35 x10de +x478 +43 x12e1
	+11 x1283 +11 x10eb +44 x1149 +xc10 +496 x2db +46 x5c2 +39 xd14 +37 xe33
	+612 x11f7 +35 x10d8 +45 x1196 +35 x130b +80 xd09 +82 x1205 +60 x85d +12 x7a9
	+41 xfa4 +209 xdac +496 x2b7 +496 x2b2 +62 x83f +xdee +68 x103a +47 x5ae
	+47 x10ee +42 x660 +208 xdde +98 x5e0 +67 x10a7 +40 xffa +496 x2b1 +496 xb76
	+89 xd20 +35 x751 +85 xcc2 +xbec +59 x843 +xbeb +42 x62f +44 x3b6
	+26 xf99 +x325 +9 xe94 +92 xe7f +55 xe2f +99 xd7f +35 x1259 +496 xb68
	+43 xcf6 +120 x456 +83 xcbb +xc5c +84 x398 +x477 +208 xdc2 +43 x12e0
	+32 x5e1 +48 x1170 +98 xe20 +183 xf73 +xc3d +54 xf83 +80 x1030

Subject To

x1 = 122128

-x14f2 >= -1
-x14f2 -x681 -x11f7 = -1
-x714 -xf38 +x681 = 0
x2f -x58f -xf73 = 0
x30 -x571 -xf75 = 0
-x134a +x39 -x1349 = 0
-x134c +x83f -x134b = 0
-x832 +x2f -x82e = 0
x30 -x830 -x32 = 0
x39 -x832 -x82e = 0
-x830 -x32 +x83f = 0
x84b -xcdf -xd14 = 0
x84d -x1338 -x7ef = 0
-x1333 +x84f -x7e6 = 0
-x12d3 +x843 -x7a9 = 0
x844 -x7a3 -x12db = 0
x855 -x3b1 -xce0 = 0
x85b -x1068 -x5e0 = 0
-x5c1 -x5c2 +x85d = 0
-x134d +x84b -x134e = 0
x84d -x134f -x1350 = 0
-x1352 +x84f -x1351 = 0
-x1354 -x1353 +x843 = 0
x844 -x1355 -x1356 = 0
x855 -x1357 -x1358 = 0
-x135b -x135c +x85b = 0
-x135d -x135e +x85d = 0
x14d5 -xd23 -xd20 = 0
-xd80 -xd81 +xb68 = 0
-xf84 +x2d1 -xf85 = 0
-x57d +x2d2 -xf83 = 0
-xd82 -xd83 +xb58 = 0
-xdb2 -x451 +x2d4 = 0
x2d5 -x428 -x42a = 0
-xd86 -xd88 +x2b0 = 0
-xd84 -xd85 +x2b1 = 0
-x430 -xd8c +x2b2 = 0
x2da -xd8b -xd8e = 0
-xd74 -xd8d +x2db = 0
-x434 +x2dc -xd7f = 0
-xd94 -xd92 +x2b7 = 0
-xd91 -xd90 +xb76 = 0
xb58 +x2d5 +x2b0 +x2da +x2dc -xbba +x2db
	+x2b2 +x2b1 +x2b7 +xb68 +xb76 >= 0
-xb58 -x2d5 -x2b0 -x2da -x2dc +xbba -x2db
	-x2b2 -x2b1 -x2b7 -xb68 -xb76 = 0
-xbbb +xb71 +x2d4 >= 0
xbbb -xb71 -x2d4 = 0
x2d1 -xbbd +x2d2 >= 0
-x2d1 +xbbd -x2d2 = 0
xb58 +x2d5 +x2b0 +x2da -x305 +x2dc +x2db
	+x2b1 +xb76 +xb68 +x2b7 +x2b2 >= 0
-xb58 -x2d5 -x2b0 -x2da -x2dc +x305 -x2db
	-x2b1 -xb76 -xb68 -x2b7 -x2b2 = 0
x2d5 +xb58 +x2b0 +x2da -xbe2 +x2dc +x2db
	+x2b2 +x2b1 +x2b7 +xb68 +xb76 >= 0
-x2d5 -xb58 -x2b0 -x2da -x2dc +xbe2 -x2db
	-x2b1 -x2b7 -x2b2 -xb68 -xb76 = 0
x2d5 +xb58 +x2da +x2b0 +x2dc -xbca +x2db
	+xb68 +x2b7 +x2b2 +xb76 +x2b1 >= 0
-x2d5 -xb58 -x2da -x2b0 -x2dc +xbca -x2db
	-xb68 -x2b7 -x2b2 -xb76 -x2b1 = 0
xb71 -xbe6 +x2d4 >= 0
-xb71 +xbe6 -x2d4 = 0
xb71 -xbe9 +x2d4 >= 0
xbe9 -xb71 -x2d4 = 0
xb71 +x2d4 -xbeb >= 0
-xb71 +xbeb -x2d4 = 0
x2d1 +x2d2 -xbec >= 0
-x2d1 -x2d2 +xbec = 0
x2d1 +x2d2 -xbef >= 0
-x2d1 +xbef -x2d2 = 0
x2d1 +x2d2 -xbf1 >= 0
-x2d1 -x2d2 +xbf1 = 0
-x137f -x1381 -x1386 -x1388 -x1385 -x1384 -x1383
	-x1387 +x305 -x1382 -x1380 -x137e = 0
-x138f -x1392 -x1390 -x138c -x138d -x138b -x1393
	-x1389 +xbe2 -x138e -x138a -x1391 = 0
-x139e -x139d -x139a -x139c -x1396 -x1397 -x1398
	-x139b +xbca -x1395 -x1399 -x1394 = 0
-x13a0 +xbe6 -x139f = 0
xbe9 -x13a2 -x13a1 = 0
-x13a3 -x13a4 +xbeb = 0
-x13a5 +xbec -x13a6 = 0
-x13a8 +xbef -x13a7 = 0
-x13aa -x13a9 +xbf1 = 0
x2d5 +xb58 -xc3b +x2da +x2b0 +x2dc +x2db
	+x2b1 +xb68 +x2b2 +xb76 +x2b7 >= 0
-x2d5 -xb58 +xc3b -x2da -x2b0 -x2dc -x2db
	-x2b1 -xb68 -x2b2 -xb76 -x2b7 = 0
x2d5 +xb58 +x2da +x2b0 +x2dc +x2db +x2b2
	+x2b7 +xb76 +x2b1 +xb68 -xc3d >= 0
-x2d5 -xb58 -x2da -x2b0 -x2dc -x2db -x2b2
	-x2b7 +xc3d -xb76 -x2b1 -xb68 = 0
xb58 +x2d5 -xc3f +x2b0 +x2da +x2dc +x2db
	+x2b7 +xb76 +x2b1 +x2b2 +xb68 >= 0
-xb58 -x2d5 +xc3f -x2b0 -x2da -x2dc -x2db
	-xb76 -x2b7 -x2b1 -x2b2 -xb68 = 0
x2d5 +xb58 -xc40 +x2da +x2b0 +x2dc +x2db
	+x2b7 +xb76 +x2b2 +x2b1 +xb68 >= 0
-x2d5 -xb58 +xc40 -x2da -x2b0 -x2dc -x2db
	-x2b7 -xb76 -x2b2 -x2b1 -xb68 = 0
xb58 +x2d5 -xc43 +x2b0 +x2da +x2dc +x2db
	+x2b2 +x2b1 +xb68 +xb76 +x2b7 >= 0
-xb58 -x2d5 +xc43 -x2b0 -x2da -x2dc -x2db
	-x2b2 -x2b1 -xb68 -xb76 -x2b7 = 0
-xc0f +x2d5 +xb58 +x2b0 +x2da +x2dc +x2db
	+xb68 +x2b1 +x2b7 +xb76 +x2b2 >= 0
xc0f -x2d5 -xb58 -x2b0 -x2da -x2dc -x2db
	-xb68 -x2b1 -x2b7 -xb76 -x2b2 = 0
xb71 -xc10 +x2d4 >= 0
-xb71 +xc10 -x2d4 = 0
xb71 -xc49 +x2d4 >= 0
-xb71 +xc49 -x2d4 = 0
xb71 -x325 +x2d4 >= 0
-xb71 -x2d4 +x325 = 0
xb71 -x350 +x2d4 >= 0
-xb71 +x350 -x2d4 = 0
xb71 +x2d4 -xc4f >= 0
-xb71 +xc4f -x2d4 = 0
xb71 -x352 +x2d4 >= 0
-xb71 +x352 -x2d4 = 0
x2d1 -xc16 +x2d2 >= 0
-x2d1 +xc16 -x2d2 = 0
x2d1 -xc54 +x2d2 >= 0
-x2d1 +xc54 -x2d2 = 0
x2d1 -xc57 +x2d2 >= 0
-x2d1 +xc57 -x2d2 = 0
-xc59 +x2d1 +x2d2 >= 0
-x2d1 +xc59 -x2d2 = 0
-xc5a +x2d1 +x2d2 >= 0
xc5a -x2d1 -x2d2 = 0
x2d1 +x2d2 -xc5c >= 0
-x2d1 -x2d2 +xc5c = 0
-x13c1 -x13bc -x13bf -x13bd -x13c2 +xc3b -x13c4
	-x13c3 -x13ba -x13bb -x13c0 -x13be = 0
-x13cf -x13c8 -x13c6 -x13ce -x13cd -x13cb -x13c5
	-x13cc -x13c7 -x13ca -x13c9 +xc3d = 0
-x13d5 -x13d8 -x13d4 -x13d6 -x13d1 -x13d0 -x13d7
	-x13d3 -x13d2 -x13da +xc3f -x13d9 = 0
-x13df -x13e3 -x13db -x13e1 -x13e4 -x13de -x13e2
	-x13e0 -x13dc +xc40 -x13dd -x13e5 = 0
-x13ed -x13ef -x13e7 -x13e9 +xc43 -x13e6 -x13eb
	-x13ec -x13ee -x13e8 -x13f0 -x13ea = 0
-x13fb -x13f9 -x13f8 -x13f1 -x13f2 +xc0f -x13f3
	-x13fa -x13f5 -x13f4 -x13f6 -x13f7 = 0
-x13fc -x13fd +xc10 = 0
-x13fe -x13ff +xc49 = 0
-x1401 +x325 -x1400 = 0
-x1402 -x1403 +x350 = 0
-x1404 -x1405 +xc4f = 0
-x1407 -x1406 +x352 = 0
-x1408 -x1409 +xc16 = 0
-x140b +xc54 -x140a = 0
-x140c +xc57 -x140d = 0
xc59 -x140f -x140e = 0
-x1410 +xc5a -x1411 = 0
-x1412 -x1413 +xc5c = 0
-x4c2 -x4c1 +x3b1 = 0
-x4c2 -x4c1 +xcb7 = 0
-x4bf +x394 -xe64 = 0
-x4bf -xe64 +xcb9 = 0
-x1436 -x1437 +xd07 = 0
-x1439 -x1438 +xd09 = 0
-x143b -x143a +x3cb = 0
-x143c -x143d +xd0d = 0
-xcc1 +xcb7 -xcbb = 0
x394 -xcbd -xcc2 = 0
-xcbf +xcb9 -x398 = 0
-xcc1 +xcdf -xcbb = 0
x39b -xcbd -xcc2 = 0
-xccc +x39b -xcc6 = 0
x39c -xcbf -x398 = 0
x39c -xccd -xcc8 = 0
-xccc -xcc6 +xce0 = 0
-xccd -xcc8 +xd14 = 0
-xcea +x3b1 -xce2 = 0
-xce4 +xcdf -x3b6 = 0
-xcec +xce0 -xce6 = 0
-xce8 -xced +xd14 = 0
x3b9 -xcea -xce2 = 0
x3b9 -xcee -xcf6 = 0
x3ba -xce4 -x3b6 = 0
x3ba -xcf7 -xcf0 = 0
x3bb -xcec -xce6 = 0
x3bb -xcf2 -xcf3 = 0
-xce8 -xced +x3bc = 0
-xcf4 -xcf9 +x3bc = 0
-xcee +x3c1 -xcf6 = 0
-xcfa -xcfb +x3c1 = 0
x3c2 -xcf7 -xcf0 = 0
x3c2 -xd03 -xcfc = 0
x3c3 -xcf3 -xcf2 = 0
x3c3 -xcfe -xcff = 0
-xcf4 -xcf9 +x3c4 = 0
-xd00 -xd05 +x3c4 = 0
-xcfa -xcfb +xd07 = 0
-xd03 -xcfc +xd09 = 0
-xcfe +x3cb -xcff = 0
-xd00 -xd05 +xd0d = 0
-x7bc -x12f3 +xd1b = 0
-x143f +xd27 -x1440 = 0
-xd24 +x12f5 -xd20 = 0
-xd27 -xd23 +xd1b = 0
-x4e1 +x3df -xe94 = 0
xd29 -xe92 -x4e3 = 0
x3f8 -x58a -x586 = 0
-x110e +x3f9 -x681 = 0
-x65f +x3fa -x660 = 0
-x62e -x107f +x3fb = 0
-x10a8 +x3fc -x10a7 = 0
x3fd -x1082 -x62f = 0
-x10aa +xd31 -x643 = 0
xd32 -x1126 -x1125 = 0
x3ea -x6ac -x1149 = 0
-x1165 -x6bc +x401 = 0
-x1127 +xd35 -x69a = 0
-x114b -x6ae +x403 = 0
-x1168 +xd37 -x1167 = 0
x405 -x12b1 = 1
-x126c +xd39 = 254
xd3a -x737 -x738 = 0
-x124a +xd3b -x124b = 0
-x1225 -x1224 +xd3c = 0
-x74d -x124d +xd3d = 0
-x1441 -x1442 +xdb6 = 0
-x1444 +xdb8 -x1443 = 0
-x1446 +x456 -x1447 = 0
-x1449 -x1448 +xdbe = 0
-x144a +xdc0 -x144b = 0
-x144d -x144c +xdc2 = 0
-x144f +xd9f -x144e = 0
-x1450 -x1451 +xdc5 = 0
-x1452 +x45c -x1453 = 0
x45d -x1455 -x1454 = 0
-x1457 +xdcc -x1456 = 0
-x1458 -x1459 +xda4 = 0
-x145b +xda5 -x145a = 0
-x145c -x145d +xda6 = 0
-x145f +x462 -x145e = 0
-x1461 +xdd6 -x1460 = 0
-x1463 +xdd8 -x1462 = 0
-x1464 +xdd9 -x1465 = 0
-x1466 -x1467 +xdac = 0
-x1469 -x1468 +xdde = 0
-x146a -x146b +x468 = 0
-xd80 +x3df -xdb6 = 0
xd29 -xd81 -xdb8 = 0
-xd42 -xd82 +xf91 = 0
-xd83 +x3f8 -x43a = 0
-xd84 -xdbe +x3f9 = 0
-xdc0 -xd85 +x3fa = 0
-xd86 +x3fb -xdc2 = 0
-x428 -xd9f +x3fc = 0
x3fd -xdc5 -xd88 = 0
xd31 -x45c -x42a = 0
xd32 -x45d -xd74 = 0
x3ea -xdcc -xd8b = 0
-xd8c -xda4 +x401 = 0
xd35 -xd8d -xda5 = 0
-xda6 -xd8e +x403 = 0
-x430 -x446 +xd37 = 0
x405 -xdd6 -xd90 = 0
xd39 -xd91 -xdd8 = 0
xd3a -xdd9 -xd92 = 0
xd3b -x434 -xdac = 0
-xd94 +xd3c -xdde = 0
-x468 -xd7f +xd3d = 0
xd42 -xdb2 -xdb9 = 0
-x451 +x43a -x456 = 0
x446 -xb71 -x462 = 0
x53e -xdee >= -1
-x53e +xdee = 1
-xdef +x513 >= -255
xdef -x513 = 255
x58f -x477 +xf73 >= 0
-x58f +x477 -xf73 = 0
x571 +xf75 -x478 >= 0
-x571 -xf75 +x478 = 0
-x146f -x146e +xdee = 0
-x1471 +xdef -x1470 = 0
-x1475 -x1474 +x477 = 0
-x1477 -x1476 +x478 = 0
-xe1f -xe1e +x47c = 0
-xe12 +xdfd -xe20 = 0
-xe02 +x1479 -xe12 = 0
-xe05 -xe1e +xe04 = 0
-xe08 -xe1f +xe07 = 0
-x147c +xe07 -x147b = 0
xe0a -xe0b -xe20 = 0
xe0a -x147d -x147e = 0
-x1480 >= -126
-xe02 -xe12 +xe33 = 0
xdfb -xe05 -xe1e = 0
-xe08 -xe1f +x47c = 0
-xe0b +xdfd -xe20 = 0
xe29 -xe2a = 254
xe29 -x1482 -x1483 = 0
-x498 >= -255
-xdfb +x498 +x496 -xe33 -xe2f = 255
-xe2a +x496 = 254
-x49a +x498 -xe33 = 0
-xdfb +x49a -xe2f = 0
x4c1 -x4f2 -x4f5 = 0
x4c2 -x4f8 -xeb7 = 0
-xe81 +x4bf -xe80 = 0
-x4d0 +xe64 -xe7f = 0
-xe67 +xe66 -xe7f = 0
-x1485 -x1484 +xe66 = 0
xe69 -xe6a -xe80 = 0
-x1487 +xe69 -x1486 = 0
-xe81 -xe74 -xe6d +xe6c = 0
-x1489 +xe6c -x1488 = 0
-xe76 -xe70 +xe6f -x4d0 = 0
xe6f -x148a -x148b = 0
-xe67 +x4c1 -xe7f = 0
x4c2 -xe6a -xe80 = 0
x4bf -xe6d -xe6b = 0
-xe6e -xe70 +xe64 = 0
-xe81 -xe74 +xe6b = 0
-xe76 +xe6e -x4d0 = 0
x4e1 -x53e = 1
-xf00 -xef9 +xe94 = 0
x4e3 -xecc -xecd = 0
-xecb +xe92 -xece = 0
-xecb -xea1 +xea0 = 0
-x148c +xea0 -x148d = 0
-xea4 +xea3 -xecc = 0
-x148f +xea3 -x148e = 0
-xea7 +xea6 -xecd = 0
-x1490 -x1491 +xea6 = 0
xea9 -xece -xeaa = 0
-x1492 +xea9 -x1493 = 0
x4e1 -x4f5 -xe97 = 0
-xe99 -x4f2 +xe94 = 0
x4e3 -xe9b -xeb7 = 0
-xe9d +xe92 -x4f8 = 0
-xebc -xeaf +x4e5 -xe97 = 0
-xecb +x4e5 -xea1 = 0
-xebe -xe99 +x4e6 -x4ee = 0
-xea4 +x4e6 -xecc = 0
-xec0 -xeb1 -xe9b +x4e7 = 0
-xea7 -xecd +x4e7 = 0
-xec2 -xe9d +x4e8 -xec1 = 0
x4e8 -xece -xeaa = 0
-xeaf -xebc +x4f5 = 0
-xebe +x4f2 -x4ee = 0
-xec0 -xeb1 +xeb7 = 0
-xec2 +x4f8 -xec1 = 0
-xf0a +x513 -xf0b = 0
x1495 -xeee -xf0a = 0
-xef1 +xef0 -xf0b = 0
-x1497 +xef0 -x1496 = 0
-x1499 >= -255
-xee5 +x513 -xef9 = 0
-xf00 >= -255
xef4 >= 0
-xeee +x53e -xf0a = 0
-xee5 +x517 -xef9 = 0
-xef1 +x517 -xf0b = 0
-xef4 >= -255
-xf32 +x53e +xf23 = 1
-xf32 +xf25 -xf26 = 0
-x149c -x149b +xf25 = 0
-xf23 >= -1
-xf32 +x53e -xf26 = 0
127 xf38 >= 0
127 xf38 >= 0
-x149f -x149e +127 xf38 = 0
xf42 -xfa5 -xfa4 = 0
-xfa6 +x58a -x58f = 0
-xf79 +xf78 -xfa4 = 0
-xf7c -xfa5 +xf7b = 0
-x14a3 +xf7b -x14a2 = 0
xf7e -xfa6 -xf7f = 0
-x14a5 +xf7e -x14a4 = 0
-xf45 -xf91 +xfc9 = 0
xf42 -xf47 -x586 = 0
-xf84 +xfb9 -x58f = 0
x554 -xf95 -xf45 = 0
x554 -xf85 -xf73 = 0
-xf97 -xf47 +x555 = 0
-x571 -x57d +x555 = 0
-xf75 +xf99 -xf83 = 0
-xf94 +x574 -xf73 = 0
-xf79 +x574 -xfa4 = 0
x575 -x571 -xf96 = 0
x575 -xf7c -xfa5 = 0
x576 -xf98 -xf75 = 0
x576 -xfa6 -xf7f = 0
-xf95 -xf94 +xf91 = 0
-xf97 -xf96 +x586 = 0
-xf98 +x58a -xf99 = 0
-xfcb +xfa8 -x5ae = 0
-xfb0 +xfaf -x5ae = 0
-x14a8 +xfaf -x14a7 = 0
-xfb9 +xf38 -xfa9 = 0
-xfab -xfb2 +xfa8 = 0
-xfb9 +xfcb -xfa9 = 0
x598 -x5a6 -xfab = 0
x598 -xfb0 -x5ae = 0
-xfba +xfb2 -xfc9 = 0
-xfba +x5a6 -xfc9 = 0
-xffb +x5c1 -xffa = 0
-xffc -x5c7 +x5c2 = 0
-x5c7 -xfe7 +xfe6 = 0
x14aa -xfea -xffa = 0
-xfed -xffb +xfec = 0
-x14ac -x14ab +xfec = 0
xfef -xff0 -xffc = 0
-x14ae +xfef -x14ad = 0
-x5c7 -xfe7 +x5e0 = 0
-xfea +x1068 -xffa = 0
-xfed -xffb +x5c1 = 0
-xff0 -xffc +x5c2 = 0
-x39 +x5d3 -x83f = 0
x5d4 -x61a -x106d = 0
-x100d -x106d +x100c = 0
-x14af -x14b0 +x100c = 0
x100f -x61a -x1010 = 0
x100f -x14b2 -x14b1 = 0
-x1007 +x5d3 -x5e0 = 0
-x1009 +x5d4 -x1068 = 0
-x1007 +x5d5 -x102f = 0
-x100d -x106d +x5d5 = 0
-x1009 +x5d6 -x1030 = 0
-x61a -x1010 +x5d6 = 0
-x1062 -x1016 +x1068 = 0
-x1062 -x1016 +x5e1 = 0
-x101f -x104d +x5e0 = 0
-x5e5 -x606 +x5e1 = 0
-x1023 +x101f -x5fd = 0
-x1038 +x5e5 -x1025 = 0
-x1023 -x5fd -x105d +x102f = 0
-x5fa -x1025 -x105e +x1030 = 0
x1038 -x5fe -x103a = 0
x5fa -x5fe -x103a = 0
-x1053 -x611 +x104d = 0
-x608 -x1060 +x606 = 0
-x1053 -x611 +x105d = 0
-x608 -x1060 +x105e = 0
-x10ef +x107f -x10ee = 0
-x10f1 +x62e -x10eb = 0
-x64b -x10b4 +x62f = 0
x1082 -x10b3 -x10b6 = 0
-x108d -x10b3 +x108c = 0
-x14b3 -x14b4 +x108c = 0
-x1090 +x108f -x10b4 = 0
-x14b5 -x14b6 +x108f = 0
-x64b +x1092 -x1093 = 0
-x14b8 +x1092 -x14b7 = 0
-x1096 +x1095 -x10b6 = 0
-x14ba +x1095 -x14b9 = 0
-x1083 +x107f -x10a7 = 0
-x10a8 -x1085 +x62e = 0
-x1087 -x643 +x62f = 0
x1082 -x10aa -x1089 = 0
-x1083 +x631 -x10a7 = 0
-x108d -x10b3 +x631 = 0
-x10a8 -x1085 +x632 = 0
-x1090 -x10b4 +x632 = 0
-x1087 -x643 +x633 = 0
-x64b +x633 -x1093 = 0
x634 -x10aa -x1089 = 0
x634 -x1096 -x10b6 = 0
x65f -x10f7 -x10fb = 0
-x10fd -x10f3 +x660 = 0
-x10d5 +x14bb -x10f3 = 0
-x10fb +x10d7 -x10d8 = 0
-x10f7 +x10da -x10db = 0
-x14be +x10da -x14bd = 0
-x10fd +x10dd -x10de = 0
x10dd -x14c0 -x14bf = 0
x681 -x10cb -x10ee = 0
-x10cd +x110e -x10ce = 0
-x667 +x65f -x10cf = 0
-x10d1 -x668 +x660 = 0
x661 -x10cb -x10ee = 0
-x10d5 +x661 -x10f3 = 0
-x10e0 -x10cd -x10ef +x662 = 0
-x10fb +x662 -x10d8 = 0
x663 -x10e2 -x10cf -x10eb = 0
-x10f7 +x663 -x10db = 0
-x10d1 -x10f1 -x10e4 +x664 = 0
-x10fd +x664 -x10de = 0
-x10e0 -x10ef +x10ce = 0
x667 -x10e2 -x10eb = 0
-x10f1 +x668 -x10e4 = 0
-x1113 -x1114 +x10ff = 0
-x1113 -x1105 +x14c1 = 0
-x1108 -x1114 +x1107 = 0
-x14c2 -x14c3 +x1107 = 0
-x1101 -x110e +x10ff = 0
-x1113 -x1105 +x681 = 0
-x1101 +x67e -x110e = 0
-x1108 +x67e -x1114 = 0
x14f2 -x6d8 +x1125 = 1
-x1193 +x1126 -x1196 = 0
-x1173 +x1127 -x6c4 = 0
-x1171 +x69a -x1170 = 0
x1132 -x1133 -x1171 = 0
x1132 -x14c5 -x14c4 = 0
x1135 -x6c4 -x1136 = 0
x1135 -x14c7 -x14c6 = 0
-x1173 -x1139 +x1138 = 0
-x14c8 +x1138 -x14c9 = 0
x113b -x113c -x1170 = 0
-x14cb +x113b -x14ca = 0
-x1129 +x1125 -x1149 = 0
-x112b +x1126 -x6ac = 0
x1127 -x114b -x112d = 0
x69a -x112f -x6ae = 0
-x1129 -x1165 -x114d +x69b = 0
-x1133 -x1171 +x69b = 0
-x114f +x69c -x112b -x6bc = 0
x69c -x1136 -x6c4 = 0
-x1151 -x112d -x1167 +x69d = 0
-x1173 -x1139 +x69d = 0
-x1153 -x112f +x69e -x1168 = 0
x69e -x113c -x1170 = 0
-x1165 -x114d +x1149 = 0
-x114f -x6bc +x6ac = 0
-x1151 +x114b -x1167 = 0
-x1153 -x1168 +x6ae = 0
-x11a1 -x6e1 +x1177 = 0
-x11a0 +x1178 -x6e2 = 0
-x11a0 -x1182 +x14cc = 0
-x11a1 -x1185 +x14cd = 0
-x6e1 -x1188 +x1187 = 0
-x14cf -x14ce +x1187 = 0
x118a -x118b -x6e2 = 0
-x14d0 -x14d1 +x118a = 0
-x117a -x6d8 +x6ec = 0
-x117c +x1177 -x1196 = 0
-x1193 -x117e +x1178 = 0
-x11a0 -x1182 -x14f2 = -1
-x117a -x6d8 +x6d0 = 0
-x11a1 -x1185 +x6d0 = 0
-x117c +x6d1 -x1196 = 0
x6d1 -x6e1 -x1188 = 0
-x1193 -x117e +x6d2 = 0
x6d2 -x118b -x6e2 = 0
-x11ba +x6e6 -x11b9 = 0
-x11b9 -x11ab +x11aa = 0
x11ad -x11ae -x11ba = 0
x11ad -x14d3 -x14d4 = 0
x6e6 -x11a7 -x6ec = 0
-x14f2 -x11b9 -x11ab = -1
x6e8 -x11a7 -x6ec = 0
-x11ae +x6e8 -x11ba = 0
-xb58 -x2d5 +x1200 -x2b0 -x2da -x2dc -x2db
	-x2b2 -x2b7 -x2b1 -xb68 -xb76 = 0
x11be -x1200 -x71c = 0
x1204 -xb71 -x2d4 = 0
-x1204 +x11c0 -x1205 = 0
-x2d1 +x1206 -x2d2 = 0
-x1208 -x1206 +x11c2 = 0
-x120b +x708 -x714 = 0
-x120e +x11c6 -x11f7 = 0
-x14f2 +x70c -x726 = 0
-x14dc -x14d7 -x14e1 -x14da -x14dd -x14d9 +x1200
	-x14db -x14d8 -x14de -x14df -x14e0 = 0
-x71c +x11ce -x11cf = 0
-x14e3 -x14e2 +x11ce = 0
x1204 -x14e5 -x14e4 = 0
-x11d3 +x11d2 -x1205 = 0
-x14e7 -x14e6 +x11d2 = 0
-x14e8 -x14e9 +x1206 = 0
-x1208 -x11d7 +x11d6 = 0
-x14ea -x14eb +x11d6 = 0
x11da -x120b -x11db = 0
-x14ed -x14ee +x11da = 0
x11de -x120e -x11df = 0
-x14f1 -x14f0 +x11de = 0
-x11e3 -x726 +x11e2 = 0
-x14f3 -x14f4 +x11e2 = 0
x11be -x71c -x11cf = 0
-x11d3 -x1205 +x11c0 = 0
-x1208 -x11d7 +x11c2 = 0
-x120b +x708 -x11db = 0
-x11df -x120e +x11c6 = 0
-x11e3 +x70c -x726 = 0
x737 +x126e -x1292 = 1
-x1293 -x1294 +x738 = 0
-x1257 +x1224 -x751 = 0
-x1256 +x1225 -x1259 = 0
x122f -x1256 -x1230 = 0
-x14f5 +x122f -x14f6 = 0
-x1233 +x1232 -x1257 = 0
-x14f7 +x1232 -x14f8 = 0
x1235 -x1236 -x751 = 0
x1235 -x14fa -x14f9 = 0
-x1239 +x1238 -x1259 = 0
-x14fc -x14fb +x1238 = 0
-x1226 -x124a +x737 = 0
-x1228 +x738 -x124b = 0
-x122a -x74d +x1224 = 0
x1225 -x122c -x124d = 0
-x1226 -x124a +x73b = 0
-x1256 +x73b -x1230 = 0
x73c -x1228 -x124b = 0
x73c -x1233 -x1257 = 0
-x122a +x73d -x74d = 0
x73d -x1236 -x751 = 0
-x122c -x124d +x73e = 0
-x1239 -x1259 +x73e = 0
-x129f +x126c -x780 = 0
-x127b +x127a -x780 = 0
-x129f -x127e +x127d = 0
-x14ff +x127d -x1500 = 0
x1280 -x1281 -x1278 = 253
x1280 -x1501 -x1502 = 0
-x126e >= -1
-x1271 -x1270 +x12b1 = 0
-x1272 -x771 +x126c = 0
-x1275 >= -254
-x1278 >= -1
-x1270 +x76c -x1292 -x1283 = 0
-x127b +x76c -x780 = 0
x76d -x1272 -x1293 -x1285 = 0
x76d -x129f -x127e = 0
-x1287 +x76e -x1294 +x1275 = 254
x76e -x1281 -x1278 = 253
x1271 -x1292 -x1283 = 0
-x1293 -x1285 +x771 = 0
-x1287 -x1294 +x1275 = 0
-x1504 >= -255
-x12b1 >= -255
-x12ab >= -1
-x12ab >= -255
x795 -x1338 -x7ef = 0
-x1333 +x12b9 -x7e6 = 0
x12ba -x1309 -x1302 = 0
-x1306 +x798 -x130b = 0
-x1506 +x1306 -x1507 = 0
-x1508 +x1309 -x1509 = 0
x12c7 -x1302 -x12c8 = 0
-x150a +x12c7 -x150b = 0
x12ca -x12cb -x130b = 0
-x150c -x150d +x12ca = 0
x795 -x12bc -x7a9 = 0
-x12d3 +x12b9 -x12be = 0
-x12c0 +x12ba -x7a3 = 0
-x12c2 -x12db +x798 = 0
-x12fb +x1306 -x12dc -x12bc = 0
-x12de -x12be -x12f5 +x1309 = 0
-x12c0 -x12fc -x12f3 +x79b -x12e0 = 0
-x1302 +x79b -x12c8 = 0
-x12e2 -x7bc +x79c -x12c2 = 0
x79c -x12cb -x130b = 0
-x12fb -x12dc +x7a9 = 0
x12d3 -x12de -x12f5 = 0
x7a3 -x12e0 -x12e1 = 0
-x12e2 -x7bc +x12db = 0
-x12e6 -x12e7 +x12e1 = 0
-x12e6 -x12f9 -x12fd +x12f3 = 0
-x12fa -x12f9 +x12e7 = 0
x12fa -x12fc -x12fd = 0
x1338 -xcdf -xd14 = 0
-x1342 +x7e6 -x1338 = 0
-x3b1 -xce0 +x7ef = 0
x1333 -x1345 -x7ef = 0
-x150e -x150f +x1338 = 0
-x1342 +x1326 -x1327 = 0
-x1510 +x1326 -x1511 = 0
-x1512 -x1513 +x7ef = 0
-x132b -x1345 +x132a = 0
-x1514 -x1515 +x132a = 0
-x1342 +x7e6 -x1327 = 0
x1333 -x132b -x1345 = 0
xe12 +xe20 >= 0
-xe12 +126 xe33 -xe20 >= 0
x11a0 +254 x14f2 +x6e2 = 254
-255 x53e +xf0a +xf0b = 0
-xffc -x5c7 +20 x5e0 >= 0
-x1208 +20 x2d1 +20 x2d2 -x1206 >= 0
255 x14f2 +x11ba +x11b9 = 255
xe1f +xe1e >= 0
126 xdfb -xe1f -xe1e >= 0
20 x39 -x106d -x61a +20 x83f >= 0
x1278 >= -253
19 x14d5 >= 0
x11a1 +x6e1 >= 0
-x11a1 +254 x6ec -x6e1 >= 0
x1171 +253 x14f2 +x1170 >= 253
-253 x14f2 -x1171 +253 x6d8 -x1170 >= -253
-x120e +19 x11f7 >= 0
x10f7 +x10fb >= 0
-x10f7 +254 x110e -x10fb >= 0
x1256 +253 x126e +x1259 >= 253
-x1256 -253 x126e +253 x1292 -x1259 >= -253
-x120b +19 x714 >= 0
x1345 -8 xce0 -8 x3b1 +x7ef = 0
xecc +xecd >= 0
254 xf00 -xecc -xecd +254 xef9 >= 0
x4d0 +xe7f >= 0
-x4d0 +255 x4f2 -xe7f +255 x4f5 >= 0
-255 xf38 +xfcb +x5ae = 0
-x1204 +20 xb71 +20 x2d4 -x1205 >= 0
x64b +x10b4 >= 0
-x64b +255 x10f1 -x10b4 +253 x10eb >= 0
-xf32 +xf23 >= -19
-xfa5 +20 xfc9 -xfa4 >= 0
x12ab >= 0
x1306 +x130b -8 x1338 -8 x7ef = 0
19 x14f2 -x726 >= 0
x1113 +x1114 -255 x681 = 0
xe81 +xe80 >= 0
-xe81 +255 x4f8 +255 xeb7 -xe80 >= 0
x1173 +x6c4 >= 0
-x1173 +253 x1193 -x6c4 +253 x1196 >= 0
x129f +x780 >= 0
-x129f -x780 +254 x12b1 >= 0
-xffb +20 x1068 -xffa >= 0
-8 x1333 +x1302 +x1309 -8 x7e6 = 0
xfa6 -255 xfb9 +x58f = 0
20 xb58 +20 x2d5 -x1200 -x71c +20 x2b0 +20 x2da +20 x2dc
	+20 x2db +20 x2b2 +20 x2b7 +20 x2b1 +20 xb68 +20 xb76 >= 0
x10fd -254 x681 +x10f3 = 0
xecb -254 x53e +xece = 254
x1342 -8 xcdf +x1338 -8 xd14 = 0
x1257 +x751 >= 0
253 x1293 +253 x1294 -x1257 -x751 >= 0
x10b3 +x10b6 -253 x10ee >= 0
253 x10ef -x10b3 -x10b6 +253 x10ee >= 0
-xef4 >= -1
126 xf38 >= 0

Bounds
x144d >= 0
x144a >= 0
x122a >= 0
x576 >= 0
x13d8 >= 0
x143c >= 0
x14a3 >= 0
xe0b >= 0
x1280 >= 0
x575 >= 0
x1487 >= 0
xe0a >= 0
x143d >= 0
x1226 >= 0
x1461 >= 0
xe08 >= 0
x1492 >= 0
xe67 >= 0
xcf4 >= 0
x3b9 >= 0
x1193 >= 0
x11ad >= 0
x1471 >= 0
x10d1 >= 0
x10cd >= 0
x14ea >= 0
x1464 >= 0
x1490 >= 0
x11a1 >= 0
x13fb >= 0
xf7c >= 0
x1108 >= 0
x1512 >= 0
x1497 >= 0
x13d5 >= 0
xec2 >= 0
x1485 >= 0
x14a5 >= 0
x150c >= 0
x1129 >= 0
xe29 >= 0
xe81 >= 0
x13d4 >= 0
x554 >= 0
x13cf >= 0
x147d >= 0
xe2a >= 0
x1173 >= 0
x13a3 >= 0
x14d0 >= 0
x13f9 >= 0
x1101 >= 0
x12c0 >= 0
x139e >= 0
x1287 >= 0
x117c >= 0
x14ed >= 0
xdc0 >= 0
x13df >= 0
x10e0 >= 0
x14f1 >= 0
x12fa >= 0
x14ae >= 0
x150a >= 0
x76d >= 0
x13a0 >= 0
x14d3 >= 0
x3c3 >= 0
xf95 >= 0
x14af >= 0
x1413 >= 0
xd32 >= 0
x1489 >= 0
x11ae >= 0
x14e3 >= 0
x14b8 >= 0
x1151 >= 0
x1513 >= 0
x1412 >= 0
x1410 >= 0
x1185 >= 0
x144b >= 0
xcbf >= 0
xf98 >= 0
x14c2 >= 0
x6d1 >= 0
x14e7 >= 0
x1467 >= 0
xf79 >= 0
x13d1 >= 0
x1506 >= 0
x150d >= 0
x14f7 >= 0
x114f >= 0
xd42 >= 0
x14b0 >= 0
x14e8 >= 0
x13ed >= 0
x14f0 >= 0
x1235 >= 0
xec0 >= 0
xea9 >= 0
x1352 >= 0
x1491 >= 0
x14dc >= 0
x1333 >= 0
x145b >= 0
x1463 >= 0
x14d4 >= 0
x139d >= 0
x3c2 >= 0
x138f >= 0
x1458 >= 0
x1466 >= 0
x1450 >= 0
x39c >= 0
x13d6 >= 0
x11be >= 0
x14ee >= 0
x13c1 >= 0
x1408 >= 0
x1132 >= 0
x69c >= 0
x139a >= 0
x108d >= 0
x14d7 >= 0
x12c7 >= 0
x147e >= 0
x137f >= 0
x598 >= 0
x12ba >= 0
x140c >= 0
x1009 >= 0
x134d >= 0
x12fc >= 0
xccd >= 0
x1477 >= 0
x13ef >= 0
x73c >= 0
x13f8 >= 0
x14e1 >= 0
x14aa >= 0
xf97 >= 0
xcc8 >= 0
x143f >= 0
x11d3 >= 0
x1392 >= 0
x14f5 >= 0
x1484 >= 0
x14da >= 0
x73d >= 0
xe9d >= 0
x13d0 >= 0
x10d5 >= 0
xf45 >= 0
x3bb >= 0
x14b5 >= 0
xe76 >= 0
xf94 >= 0
x13e7 >= 0
xfed >= 0
x1233 >= 0
x14be >= 0
x14d1 >= 0
x1436 >= 0
x144f >= 0
xce8 >= 0
x14a8 >= 0
x143b >= 0
x13d7 >= 0
x147c >= 0
x1452 >= 0
xcea >= 0
xccc >= 0
x1113 >= 0
x13bc >= 0
x14dd >= 0
x1449 >= 0
x1133 >= 0
xd3a >= 0
xd82 >= 0
x140b >= 0
x12e6 >= 0
x124a >= 0
x1135 >= 0
x117e >= 0
x129f >= 0
xcec >= 0
x134a >= 0
x1446 >= 0
x13e3 >= 0
x65f >= 0
x13f1 >= 0
x149c >= 0
x14fa >= 0
x146a >= 0
x667 >= 0
x1293 >= 0
xeaf >= 0
x634 >= 0
x405 >= 0
x14cd >= 0
x4bf >= 0
x13aa >= 0
xe6e >= 0
xe66 >= 0
x13c8 >= 0
xebe >= 0
x122f >= 0
x13d3 >= 0
xc5a >= 0
x5d4 >= 0
x1501 >= 0
x1165 >= 0
x1495 >= 0
x13db >= 0
x10fd >= 0
x1439 >= 0
x14bb >= 0
x10ef >= 0
x13a8 >= 0
x14e2 >= 0
x10a8 >= 0
x135b >= 0
x4e1 >= 0
x13e9 >= 0
x1272 >= 0
x76e >= 0
x394 >= 0
xe99 >= 0
xe02 >= 0
x14eb >= 0
x1178 >= 0
x1236 >= 0
xe6f >= 0
xee5 >= 0
x1023 >= 0
xe74 >= 0
x1096 >= 0
x1514 >= 0
x14c3 >= 0
x100f >= 0
x13d2 >= 0
x10f7 >= 0
x1407 >= 0
xd00 >= 0
x13bd >= 0
xbbb >= 0
x1062 >= 0
x1090 >= 0
x1271 >= 0
x11a0 >= 0
xe70 >= 0
xcc6 >= 0
xf84 >= 0
x1469 >= 0
x1381 >= 0
x3fd >= 0
x4e8 >= 0
x1208 >= 0
x39b >= 0
x13fc >= 0
x14cb >= 0
x1342 >= 0
x12fb >= 0
xdd9 >= 0
x1402 >= 0
xebc >= 0
xf42 >= 0
x1390 >= 0
x13e1 >= 0
xfa5 >= 0
x1479 >= 0
x1406 >= 0
x6e8 >= 0
x1127 >= 0
x13bf >= 0
xd80 >= 0
xf7e >= 0
x1437 >= 0
x138d >= 0
x13fe >= 0
x14d9 >= 0
x118a >= 0
xff0 >= 0
x143a >= 0
x10dd >= 0
xfba >= 0
xd83 >= 0
x1388 >= 0
xdfb >= 0
x138c >= 0
x12d3 >= 0
x134f >= 0
x1451 >= 0
x13c6 >= 0
x146f >= 0
x39 >= 0
x14b2 >= 0
xcf7 >= 0
x3ba >= 0
x13a9 >= 0
x14cf >= 0
x13f2 >= 0
x10e2 >= 0
x14c8 >= 0
xecb >= 0
xf32 >= 0
xea4 >= 0
x13e4 >= 0
x1404 >= 0
x430 >= 0
x139c >= 0
xd94 >= 0
xfa6 >= 0
x1182 >= 0
x14c7 >= 0
x1087 >= 0
x148f >= 0
x1438 >= 0
x11da >= 0
x1139 >= 0
x149b >= 0
x1171 >= 0
x855 >= 0
x67e >= 0
x14b6 >= 0
x84d >= 0
x14d5 >= 0
x1386 >= 0
x84b >= 0
xfef >= 0
x114d >= 0
x146b >= 0
x113b >= 0
x1354 >= 0
x10aa >= 0
x11d7 >= 0
xe12 >= 0
x12e2 >= 0
x1082 >= 0
x1285 >= 0
x1510 >= 0
x13fd >= 0
xdb2 >= 0
xce4 >= 0
x6d2 >= 0
x4c2 >= 0
x1357 >= 0
x11e3 >= 0
x14f2 >= 0
x1153 >= 0
x14ff >= 0
x13a5 >= 0
x45d >= 0
x14b1 >= 0
x49a >= 0
x1270 >= 0
xe6d >= 0
xcbd >= 0
x6e6 >= 0
xcee >= 0
x11ba >= 0
x14b3 >= 0
x1294 >= 0
x12dc >= 0
x663 >= 0
xea7 >= 0
x1007 >= 0
x446 >= 0
xd29 >= 0
xcfe >= 0
x135d >= 0
xc0f >= 0
x127e >= 0
x148a >= 0
xe69 >= 0
xef1 >= 0
x14ba >= 0
xfb0 >= 0
x1306 >= 0
x64b >= 0
xd81 >= 0
x132b >= 0
x150f >= 0
xd03 >= 0
x117a >= 0
x120b >= 0
x571 >= 0
x11d6 >= 0
xdc5 >= 0
xd35 >= 0
xcfa >= 0
x135c >= 0
x10b3 >= 0
x1349 >= 0
x126c >= 0
x11de >= 0
x1256 >= 0
x1459 >= 0
xcf0 >= 0
x146e >= 0
x5a6 >= 0
x1083 >= 0
x13ce >= 0
xe92 >= 0
x771 >= 0
x13cd >= 0
xd86 >= 0
x150e >= 0
x1475 >= 0
x74d >= 0
xd31 >= 0
xffc >= 0
x127b >= 0
xb58 >= 0
x14c5 >= 0
x517 >= 0
x11a7 >= 0
x1441 >= 0
xf7b >= 0
x79c >= 0
x70c >= 0
x110e >= 0
x30 >= 0
x2d5 >= 0
x13da >= 0
x1455 >= 0
x1038 >= 0
x708 >= 0
x1092 >= 0
xece >= 0
xd92 >= 0
x795 >= 0
x1411 >= 0
x2f >= 0
x13f3 >= 0
x5fa >= 0
x69e >= 0
x112b >= 0
xcc1 >= 0
x145c >= 0
x643 >= 0
xcfc >= 0
x1136 >= 0
x1225 >= 0
x1204 >= 0
x737 >= 0
xf7f >= 0
x84f >= 0
x76c >= 0
xd88 >= 0
x149f >= 0
xdef >= 0
x6d8 >= 0
xfab >= 0
x145d >= 0
x7bc >= 0
x6c4 >= 0
xd8c >= 0
x11db >= 0
x13fa >= 0
xeb1 >= 0
x1401 >= 0
x2d1 >= 0
xeee >= 0
x120e >= 0
x1403 >= 0
x1200 >= 0
xc59 >= 0
xe6b >= 0
x608 >= 0
x1326 >= 0
xea6 >= 0
x69a >= 0
x13cb >= 0
x14ac >= 0
x5e5 >= 0
x1114 >= 0
xd05 >= 0
xcfb >= 0
x1457 >= 0
x3f8 >= 0
x112f >= 0
x140f >= 0
xef0 >= 0
x11df >= 0
x4e3 >= 0
xbe9 >= 0
x144c >= 0
x145f >= 0
x1016 >= 0
x1085 >= 0
x71c >= 0
xc43 >= 0
xdfd >= 0
xb71 >= 0
x148c >= 0
xfaf >= 0
x1053 >= 0
x13c5 >= 0
x468 >= 0
xbe6 >= 0
x53e >= 0
x5c7 >= 0
x13e6 >= 0
xd27 >= 0
x1468 >= 0
x14e6 >= 0
x1454 >= 0
x1384 >= 0
x1089 >= 0
x832 >= 0
x1442 >= 0
xffb >= 0
x12f9 >= 0
x633 >= 0
x148b >= 0
x100d >= 0
x10f1 >= 0
x1474 >= 0
x661 >= 0
xd39 >= 0
xd91 >= 0
x13f4 >= 0
x13a4 >= 0
x4c1 >= 0
x1396 >= 0
x714 >= 0
x122c >= 0
x13c2 >= 0
x14f3 >= 0
x1095 >= 0
x726 >= 0
x1232 >= 0
x1409 >= 0
x12ca >= 0
xcf9 >= 0
x14ad >= 0
x112d >= 0
x114b >= 0
x14cc >= 0
xf00 >= 0
x13de >= 0
x1508 >= 0
x6ec >= 0
x13f5 >= 0
xf96 >= 0
x12de >= 0
x135e >= 0
x1025 >= 0
x10cf >= 0
xfea >= 0
x498 >= 0
x5d3 >= 0
x1500 >= 0
x1486 >= 0
xda6 >= 0
x14e9 >= 0
x14b4 >= 0
xc3f >= 0
xf47 >= 0
x12e7 >= 0
x1383 >= 0
x1385 >= 0
x127d >= 0
xe05 >= 0
x4f8 >= 0
x1444 >= 0
xbbd >= 0
xea3 >= 0
x134e >= 0
x1397 >= 0
x14f8 >= 0
x1168 >= 0
x1239 >= 0
x1482 >= 0
x10b6 >= 0
x1138 >= 0
xe6a >= 0
xda4 >= 0
x350 >= 0
x13c4 >= 0
xd3b >= 0
x14db >= 0
x1480 >= 0
x4e6 >= 0
x1353 >= 0
xd84 >= 0
x12b9 >= 0
x12bc >= 0
xdb9 >= 0
x126e >= 0
xd23 >= 0
x12c2 >= 0
x118b >= 0
x1515 >= 0
xe6c >= 0
x1483 >= 0
x62e >= 0
xc3b >= 0
x1345 >= 0
x1499 >= 0
x3cb >= 0
x1405 >= 0
x14ce >= 0
x13cc >= 0
x13eb >= 0
x58a >= 0
x57d >= 0
x14b7 >= 0
x5c1 >= 0
x13e2 >= 0
xe1f >= 0
x1398 >= 0
x138b >= 0
x1230 >= 0
x14d8 >= 0
x1393 >= 0
xf25 >= 0
x73b >= 0
x1387 >= 0
x1281 >= 0
x13e0 >= 0
x830 >= 0
x139f >= 0
x611 >= 0
x6e1 >= 0
xd74 >= 0
x150b >= 0
x844 >= 0
x13dc >= 0
x1448 >= 0
x85b >= 0
x1470 >= 0
xf26 >= 0
x2b0 >= 0
x352 >= 0
x4e5 >= 0
x107f >= 0
x1257 >= 0
xe1e >= 0
x13ff >= 0
xfe7 >= 0
x1504 >= 0
xcff >= 0
xe9b >= 0
x428 >= 0
x2da >= 0
xec1 >= 0
xdcc >= 0
x14a7 >= 0
xeb7 >= 0
xfb9 >= 0
x139b >= 0
xc54 >= 0
x1350 >= 0
x140d >= 0
x134c >= 0
x10da >= 0
x1107 >= 0
x13c3 >= 0
x127a >= 0
x1105 >= 0
xdb8 >= 0
x14a4 >= 0
xf85 >= 0
x10ce >= 0
xf78 >= 0
x14c0 >= 0
x58f >= 0
x108f >= 0
x1126 >= 0
xc57 >= 0
x631 >= 0
xc40 >= 0
x3ea >= 0
x108c >= 0
x1228 >= 0
xecc >= 0
xd37 >= 0
x13ec >= 0
x10fb >= 0
x145e >= 0
x45c >= 0
x113c >= 0
xe07 >= 0
xdd8 >= 0
x13a2 >= 0
x1507 >= 0
x462 >= 0
xf75 >= 0
x14de >= 0
x14fc >= 0
x132a >= 0
x555 >= 0
x149e >= 0
x3c1 >= 0
x1060 >= 0
x14a2 >= 0
xf91 >= 0
xd24 >= 0
x1456 >= 0
x1488 >= 0
x13a1 >= 0
x11d2 >= 0
x1389 >= 0
xd07 >= 0
x14ab >= 0
x14f4 >= 0
x1292 >= 0
xbba >= 0
x14c6 >= 0
x6ae >= 0
x668 >= 0
x1511 >= 0
x1177 >= 0
xbca >= 0
x1382 >= 0
x738 >= 0
xcf2 >= 0
x1125 >= 0
xbe2 >= 0
x1275 >= 0
x14c1 >= 0
x11b9 >= 0
xf38 >= 0
x13ee >= 0
x69b >= 0
xfcb >= 0
x4f2 >= 0
xcdf >= 0
x1358 >= 0
x1453 >= 0
xd8d >= 0
x14c4 >= 0
xdbe >= 0
x7a3 >= 0
x3f9 >= 0
x1380 >= 0
xe64 >= 0
x43a >= 0
x2dc >= 0
x780 >= 0
xced >= 0
xd8b >= 0
x12c8 >= 0
x144e >= 0
x13ba >= 0
x147b >= 0
xbf1 >= 0
x1493 >= 0
x12cb >= 0
x14b9 >= 0
xdb6 >= 0
xfa9 >= 0
x12fd >= 0
x3df >= 0
x12b1 >= 0
xce6 >= 0
x1395 >= 0
x14fb >= 0
xce0 >= 0
x12f5 >= 0
x4ee >= 0
x12be >= 0
x305 >= 0
x5d5 >= 0
x10b4 >= 0
x4d0 >= 0
xda5 >= 0
x101f >= 0
x434 >= 0
x632 >= 0
xea1 >= 0
xe80 >= 0
x1351 >= 0
x681 >= 0
xd0d >= 0
x1476 >= 0
x32 >= 0
x140e >= 0
x61a >= 0
xf0a >= 0
xd85 >= 0
x13c7 >= 0
x106d >= 0
x1010 >= 0
xdd6 >= 0
x11e2 >= 0
x124d >= 0
x5fd >= 0
x2d2 >= 0
x606 >= 0
xfc9 >= 0
x1496 >= 0
x11ce >= 0
x13f6 >= 0
x6ac >= 0
xfb2 >= 0
x586 >= 0
x10e4 >= 0
x6e2 >= 0
x13e8 >= 0
x105e >= 0
x10cb >= 0
x513 >= 0
x1338 >= 0
x574 >= 0
xcf3 >= 0
x104d >= 0
x102f >= 0
x664 >= 0
x1068 >= 0
x105d >= 0
xd8e >= 0
x13ca >= 0
xfec >= 0
x1327 >= 0
x7e6 >= 0
x1093 >= 0
x11ab >= 0
x14e5 >= 0
x6bc >= 0
x12db >= 0
x13dd >= 0
x1188 >= 0
x79b >= 0
x1440 >= 0
xd90 >= 0
x451 >= 0
x13bb >= 0
x14df >= 0
x42a >= 0
x1278 >= 0
xd9f >= 0
xce2 >= 0
x3b1 >= 0
x13f7 >= 0
x1309 >= 0
x3fb >= 0
x1443 >= 0
x1302 >= 0
xc16 >= 0
x1206 >= 0
x10f3 >= 0
xbef >= 0
x3c4 >= 0
xc49 >= 0
xf0b >= 0
x11c2 >= 0
x12f3 >= 0
x14bf >= 0
xecd >= 0
x47c >= 0
x1224 >= 0
x13f0 >= 0
xeaa >= 0
x1167 >= 0
xe04 >= 0
x124b >= 0
x82e >= 0
x3fc >= 0
x1356 >= 0
xf23 >= 0
x14e0 >= 0
x14f6 >= 0
xe97 >= 0
x6d0 >= 0
x4f5 >= 0
x10d7 >= 0
x10db >= 0
xc4f >= 0
x69d >= 0
xd3c >= 0
x7ef >= 0
x11cf >= 0
xcb9 >= 0
x73e >= 0
xef9 >= 0
x1465 >= 0
x14f9 >= 0
x1399 >= 0
x2d4 >= 0
x5fe >= 0
x10de >= 0
x10ff >= 0
x1238 >= 0
x13a7 >= 0
x12ab >= 0
x478 >= 0
x1283 >= 0
x12e1 >= 0
x1149 >= 0
x10eb >= 0
xc10 >= 0
xd3d >= 0
x5d6 >= 0
x2db >= 0
x5c2 >= 0
xd14 >= 0
x1394 >= 0
xe33 >= 0
x1460 >= 0
x140a >= 0
x148e >= 0
xd1b >= 0
x11f7 >= 0
x10d8 >= 0
x1447 >= 0
x1196 >= 0
x13c0 >= 0
x130b >= 0
x496 >= 0
xd09 >= 0
x1205 >= 0
x85d >= 0
x1509 >= 0
x1187 >= 0
x100c >= 0
x7a9 >= 0
x403 >= 0
xfa4 >= 0
x14e4 >= 0
x148d >= 0
x1502 >= 0
x13c9 >= 0
x4e7 >= 0
x11aa >= 0
xdac >= 0
x2b7 >= 0
x2b2 >= 0
x83f >= 0
xdee >= 0
x103a >= 0
x14c9 >= 0
x401 >= 0
x137e >= 0
xcb7 >= 0
x5ae >= 0
x1400 >= 0
x660 >= 0
x10ee >= 0
x14ca >= 0
xdde >= 0
x5e0 >= 0
x11c0 >= 0
x1355 >= 0
x10a7 >= 0
x2b1 >= 0
xffa >= 0
xb76 >= 0
x1391 >= 0
xea0 >= 0
xd20 >= 0
x138e >= 0
x751 >= 0
xcc2 >= 0
xfa8 >= 0
xbec >= 0
xbeb >= 0
x843 >= 0
x62f >= 0
x3b6 >= 0
x13a6 >= 0
xf99 >= 0
x325 >= 0
x14bd >= 0
x798 >= 0
xe7f >= 0
x13e5 >= 0
xe2f >= 0
xe94 >= 0
x138a >= 0
xd7f >= 0
x11c6 >= 0
x1259 >= 0
xb68 >= 0
xcf6 >= 0
x456 >= 0
xcbb >= 0
xfe6 >= 0
x3bc >= 0
x398 >= 0
xc5c >= 0
x134b >= 0
x477 >= 0
xdc2 >= 0
x3fa >= 0
x13ea >= 0
xef4 >= 0
x12e0 >= 0
x13d9 >= 0
x5e1 >= 0
x662 >= 0
x1170 >= 0
xe20 >= 0
xf73 >= 0
xc3d >= 0
x13be >= 0
xf83 >= 0
x145a >= 0
x1462 >= 0
x1030 >= 0

Generals
x1
 x144d x144a x122a x576 x13d8 x143c x14a3 xe0b x1280 x575
 x1487 xe0a x143d x1226 x1461 xe08 x1492 xe67 xcf4 x3b9
 x1193 x11ad x1471 x10d1 x10cd x14ea x1464 x1490 x11a1 x13fb
 xf7c x1108 x1512 x1497 x13d5 xec2 x1485 x14a5 x150c x1129
 xe29 xe81 x13d4 x554 x13cf x147d xe2a x1173 x13a3 x14d0
 x13f9 x1101 x12c0 x139e x1287 x117c x14ed xdc0 x13df x10e0
 x14f1 x12fa x14ae x150a x76d x13a0 x14d3 x3c3 xf95 x14af
 x1413 xd32 x1489 x11ae x14e3 x14b8 x1151 x1513 x1412 x1410
 x1185 x144b xcbf xf98 x14c2 x6d1 x14e7 x1467 xf79 x13d1
 x1506 x150d x14f7 x114f xd42 x14b0 x14e8 x13ed x14f0 x1235
 xec0 xea9 x1352 x1491 x14dc x1333 x145b x1463 x14d4 x139d
 x3c2 x138f x1458 x1466 x1450 x39c x13d6 x11be x14ee x13c1
 x1408 x1132 x69c x139a x108d x14d7 x12c7 x147e x137f x598
 x12ba x140c x1009 x134d x12fc xccd x1477 x13ef x73c x13f8
 x14e1 x14aa xf97 xcc8 x143f x11d3 x1392 x14f5 x1484 x14da
 x73d xe9d x13d0 x10d5 xf45 x3bb x14b5 xe76 xf94 x13e7
 xfed x1233 x14be x14d1 x1436 x144f xce8 x14a8 x143b x13d7
 x147c x1452 xcea xccc x1113 x13bc x14dd x1449 x1133 xd3a
 xd82 x140b x12e6 x124a x1135 x117e x129f xcec x134a x1446
 x13e3 x65f x13f1 x149c x14fa x146a x667 x1293 xeaf x634
 x405 x14cd x4bf x13aa xe6e xe66 x13c8 xebe x122f x13d3
 xc5a x5d4 x1501 x1165 x1495 x13db x10fd x1439 x14bb x10ef
 x13a8 x14e2 x10a8 x135b x4e1 x13e9 x1272 x76e x394 xe99
 xe02 x14eb x1178 x1236 xe6f xee5 x1023 xe74 x1096 x1514
 x14c3 x100f x13d2 x10f7 x1407 xd00 x13bd xbbb x1062 x1090
 x1271 x11a0 xe70 xcc6 xf84 x1469 x1381 x3fd x4e8 x1208
 x39b x13fc x14cb x1342 x12fb xdd9 x1402 xebc xf42 x1390
 x13e1 xfa5 x1479 x1406 x6e8 x1127 x13bf xd80 xf7e x1437
 x138d x13fe x14d9 x118a xff0 x143a x10dd xfba xd83 x1388
 xdfb x138c x12d3 x134f x1451 x13c6 x146f x39 x14b2 xcf7
 x3ba x13a9 x14cf x13f2 x10e2 x14c8 xecb xf32 xea4 x13e4
 x1404 x430 x139c xd94 xfa6 x1182 x14c7 x1087 x148f x1438
 x11da x1139 x149b x1171 x855 x67e x14b6 x84d x14d5 x1386
 x84b xfef x114d x146b x113b x1354 x10aa x11d7 xe12 x12e2
 x1082 x1285 x1510 x13fd xdb2 xce4 x6d2 x4c2 x1357 x11e3
 x14f2 x1153 x14ff x13a5 x45d x14b1 x49a x1270 xe6d xcbd
 x6e6 xcee x11ba x14b3 x1294 x12dc x663 xea7 x1007 x446
 xd29 xcfe x135d xc0f x127e x148a xe69 xef1 x14ba xfb0
 x1306 x64b xd81 x132b x150f xd03 x117a x120b x571 x11d6
 xdc5 xd35 xcfa x135c x10b3 x1349 x126c x11de x1256 x1459
 xcf0 x146e x5a6 x1083 x13ce xe92 x771 x13cd xd86 x150e
 x1475 x74d xd31 xffc x127b xb58 x14c5 x517 x11a7 x1441
 xf7b x79c x70c x110e x30 x2d5 x13da x1455 x1038 x708
 x1092 xece xd92 x795 x1411 x2f x13f3 x5fa x69e x112b
 xcc1 x145c x643 xcfc x1136 x1225 x1204 x737 xf7f x84f
 x76c xd88 x149f xdef x6d8 xfab x145d x7bc x6c4 xd8c
 x11db x13fa xeb1 x1401 x2d1 xeee x120e x1403 x1200 xc59
 xe6b x608 x1326 xea6 x69a x13cb x14ac x5e5 x1114 xd05
 xcfb x1457 x3f8 x112f x140f xef0 x11df x4e3 xbe9 x144c
 x145f x1016 x1085 x71c xc43 xdfd xb71 x148c xfaf x1053
 x13c5 x468 xbe6 x53e x5c7 x13e6 xd27 x1468 x14e6 x1454
 x1384 x1089 x832 x1442 xffb x12f9 x633 x148b x100d x10f1
 x1474 x661 xd39 xd91 x13f4 x13a4 x4c1 x1396 x714 x122c
 x13c2 x14f3 x1095 x726 x1232 x1409 x12ca xcf9 x14ad x112d
 x114b x14cc xf00 x13de x1508 x6ec x13f5 xf96 x12de x135e
 x1025 x10cf xfea x498 x5d3 x1500 x1486 xda6 x14e9 x14b4
 xc3f xf47 x12e7 x1383 x1385 x127d xe05 x4f8 x1444 xbbd
 xea3 x134e x1397 x14f8 x1168 x1239 x1482 x10b6 x1138 xe6a
 xda4 x350 x13c4 xd3b x14db x1480 x4e6 x1353 xd84 x12b9
 x12bc xdb9 x126e xd23 x12c2 x118b x1515 xe6c x1483 x62e
 xc3b x1345 x1499 x3cb x1405 x14ce x13cc x13eb x58a x57d
 x14b7 x5c1 x13e2 xe1f x1398 x138b x1230 x14d8 x1393 xf25
 x73b x1387 x1281 x13e0 x830 x139f x611 x6e1 xd74 x150b
 x844 x13dc x1448 x85b x1470 xf26 x2b0 x352 x4e5 x107f
 x1257 xe1e x13ff xfe7 x1504 xcff xe9b x428 x2da xec1
 xdcc x14a7 xeb7 xfb9 x139b xc54 x1350 x140d x134c x10da
 x1107 x13c3 x127a x1105 xdb8 x14a4 xf85 x10ce xf78 x14c0
 x58f x108f x1126 xc57 x631 xc40 x3ea x108c x1228 xecc
 xd37 x13ec x10fb x145e x45c x113c xe07 xdd8 x13a2 x1507
 x462 xf75 x14de x14fc x132a x555 x149e x3c1 x1060 x14a2
 xf91 xd24 x1456 x1488 x13a1 x11d2 x1389 xd07 x14ab x14f4
 x1292 xbba x14c6 x6ae x668 x1511 x1177 xbca x1382 x738
 xcf2 x1125 xbe2 x1275 x14c1 x11b9 xf38 x13ee x69b xfcb
 x4f2 xcdf x1358 x1453 xd8d x14c4 xdbe x7a3 x3f9 x1380
 xe64 x43a x2dc x780 xced xd8b x12c8 x144e x13ba x147b
 xbf1 x1493 x12cb x14b9 xdb6 xfa9 x12fd x3df x12b1 xce6
 x1395 x14fb xce0 x12f5 x4ee x12be x305 x5d5 x10b4 x4d0
 xda5 x101f x434 x632 xea1 xe80 x1351 x681 xd0d x1476
 x32 x140e x61a xf0a xd85 x13c7 x106d x1010 xdd6 x11e2
 x124d x5fd x2d2 x606 xfc9 x1496 x11ce x13f6 x6ac xfb2
 x586 x10e4 x6e2 x13e8 x105e x10cb x513 x1338 x574 xcf3
 x104d x102f x664 x1068 x105d xd8e x13ca xfec x1327 x7e6
 x1093 x11ab x14e5 x6bc x12db x13dd x1188 x79b x1440 xd90
 x451 x13bb x14df x42a x1278 xd9f xce2 x3b1 x13f7 x1309
 x3fb x1443 x1302 xc16 x1206 x10f3 xbef x3c4 xc49 xf0b
 x11c2 x12f3 x14bf xecd x47c x1224 x13f0 xeaa x1167 xe04
 x124b x82e x3fc x1356 xf23 x14e0 x14f6 xe97 x6d0 x4f5
 x10d7 x10db xc4f x69d xd3c x7ef x11cf xcb9 x73e xef9
 x1465 x14f9 x1399 x2d4 x5fe x10de x10ff x1238 x13a7 x12ab
 x478 x1283 x12e1 x1149 x10eb xc10 xd3d x5d6 x2db x5c2
 xd14 x1394 xe33 x1460 x140a x148e xd1b x11f7 x10d8 x1447
 x1196 x13c0 x130b x496 xd09 x1205 x85d x1509 x1187 x100c
 x7a9 x403 xfa4 x14e4 x148d x1502 x13c9 x4e7 x11aa xdac
 x2b7 x2b2 x83f xdee x103a x14c9 x401 x137e xcb7 x5ae
 x1400 x660 x10ee x14ca xdde x5e0 x11c0 x1355 x10a7 x2b1
 xffa xb76 x1391 xea0 xd20 x138e x751 xcc2 xfa8 xbec
 xbeb x843 x62f x3b6 x13a6 xf99 x325 x14bd x798 xe7f
 x13e5 xe2f xe94 x138a xd7f x11c6 x1259 xb68 xcf6 x456
 xcbb xfe6 x3bc x398 xc5c x134b x477 xdc2 x3fa x13ea
 xef4 x12e0 x13d9 x5e1 x662 x1170 xe20 xf73 xc3d x13be
 xf83 x145a x1462 x1030



End
